n=10;
t=24;
profit=[6 5 7 3 10 8 7 1 8 8];
length=[5 3 1 1 3 4 4 1 4 3];
min_deliver=[2 1 15 11 1 7 7 1 2 18];
max_deliver=[6 10 18 11 3 8 22 2 12 18];
surface=[3 2 3 5 3 1 3 5 1 1];
surface_capacity=14;
